NAME: CMT5_7
TYPE: CVRP
COMMENT: 1291.29 - Cluster Nr.7
DIMENSION: 14
CAPACITY: 200
EDGE_WEIGHT_TYPE: EUC_2D
NODE_COORD_TYPE: TWOD_COORDS
NODE_COORD_SECTION: 
13 33 34
1 35 40
6 30 48
14 33 44
8 41 37
9 35 51
11 42 41
2 41 46
3 31 32
4 32 39
5 35 35
10 37 47
7 38 46
12 27 43
DEPOT_SECTION: 
5
-1
DEMAND_SECTION: 
11 19
13 19
8 16
9 16
3 29
1 16
4 5
5 0
2 18
6 15
12 9
10 6
14 20
7 12
EOF
